p tw 24 152
0 1
0 2
0 10
0 17
0 18
0 9
0 4
0 22
0 12
0 11
0 19
0 3
0 15
0 5
0 13
0 20
0 21
1 2
1 3
1 13
1 15
1 20
1 5
1 23
1 4
1 17
1 9
2 13
2 16
2 6
2 18
2 11
2 21
2 3
2 23
2 4
2 5
2 22
2 8
2 20
2 19
2 7
3 4
3 5
3 6
3 7
3 13
3 22
3 14
3 18
3 23
3 11
3 21
3 17
4 5
4 14
4 16
4 22
4 11
4 19
4 17
4 8
4 21
5 14
5 15
5 19
5 20
5 7
5 13
5 22
5 11
5 23
5 16
6 7
6 18
6 15
6 17
6 13
7 14
7 19
7 11
7 16
7 17
7 22
7 23
7 8
7 18
7 13
7 21
8 9
8 10
8 12
8 15
8 18
8 19
8 13
8 21
8 20
8 14
8 23
9 10
9 17
9 12
9 19
10 17
10 14
10 18
10 19
10 21
10 12
10 20
10 16
10 22
11 12
11 13
11 16
11 21
11 19
11 18
11 20
11 17
12 13
12 15
12 20
12 17
12 21
12 19
13 16
13 21
13 19
13 18
13 15
13 20
14 15
14 16
14 19
14 18
14 23
15 17
15 21
15 22
15 20
16 22
16 23
17 19
17 18
18 21
18 23
18 22
19 20
19 21
20 21
